c   #vars: 37   #clauses: 163   #literals: 470
c 
p cnf 37 163
-1 -2 0
4 5 -8 -9 0
-4 -5 0
-6 -7 0
-8 -9 0
-10 -11 0
13 -18 22 23 0
10 11 -24 28 0
-14 -15 0
-16 -17 0
-18 -19 0
-20 -21 0
-22 -23 0
-24 -25 0
24 25 29 30 0
22 23 33 34 0
1 2 33 34 0
4 5 20 21 0
4 5 33 34 0
-26 -27 0
16 17 35 36 0
6 7 16 17 0
12 26 27 -29 0
10 11 -16 37 0
-29 -30 0
1 2 14 15 0
-31 -32 0
-33 -34 0
-35 -36 0
-10 24 25 28 0
-1 -14 0
-2 -15 0
-1 -20 0
-2 -21 0
-1 -24 0
-2 -25 0
18 19 26 27 0
-14 -15 24 25 0
12 26 27 -35 0
-1 -33 0
-2 -34 0
-4 -5 8 9 0
12 -29 35 36 0
3 24 25 -31 0
-1 -2 10 11 0
12 -26 35 36 0
20 21 29 30 0
12 -26 29 30 0
18 19 29 30 0
-3 -25 0
-3 -30 0
8 9 18 19 0
-4 -6 -7 -9 0
-3 -32 0
-4 -20 0
-5 -21 0
13 18 19 -22 0
-4 -33 0
-5 -34 0
-4 -35 0
-5 -36 0
-6 -16 0
-7 -17 0
-8 -9 26 27 0
3 -29 31 32 0
1 2 -10 -11 0
-6 -26 0
-7 -27 0
-6 -29 0
-7 -30 0
18 19 33 34 0
-7 -37 0
-8 -16 0
-9 -17 0
-8 -18 0
-9 -19 0
3 -24 31 32 0
-10 16 17 37 0
-8 -26 0
-9 -27 0
10 11 18 19 0
-6 10 11 37 0
-9 -28 0
-6 -7 -8 -9 0
-10 -16 0
-11 -17 0
10 11 16 17 0
-10 -18 0
-11 -19 0
8 9 16 17 0
-10 -20 0
-11 -21 0
14 15 -24 -25 0
6 7 -16 37 0
-11 -28 0
3 -24 29 30 0
-11 -37 0
-6 16 17 37 0
13 -14 22 23 0
-12 -27 0
20 21 31 32 0
13 14 15 -22 0
-12 -30 0
13 14 15 -18 0
-12 -36 0
8 9 26 27 0
-8 10 11 28 0
-13 -15 0
16 17 33 34 0
8 9 -24 28 0
-13 -19 0
13 -14 18 19 0
8 9 -10 28 0
-13 -23 0
-8 24 25 28 0
-14 -31 0
-15 -32 0
22 23 35 36 0
-16 -33 0
-17 -34 0
-16 -35 0
-17 -36 0
6 7 26 27 0
-17 -37 0
10 11 20 21 0
-18 -26 0
-19 -27 0
1 2 20 21 0
-18 -29 0
-19 -30 0
4 5 35 36 0
-18 -33 0
-19 -34 0
24 25 35 36 0
-20 -26 0
-21 -27 0
1 2 24 25 0
-20 -29 0
-21 -30 0
-4 -5 -6 -7 0
-20 -31 0
-21 -32 0
8 9 -26 -27 0
22 23 31 32 0
-22 -31 0
-23 -32 0
14 15 31 32 0
-22 -33 0
-23 -34 0
-22 -35 0
-23 -36 0
3 24 25 -29 0
6 7 -10 37 0
-25 -28 0
20 21 26 27 0
-24 -29 0
-25 -30 0
-24 -35 0
-25 -36 0
-5 -6 -7 -8 0
6 7 29 30 0
3 29 30 -31 0
12 29 30 -35 0
